
Gurobi 10.0.1 (mac64[arm]) logging started Mon Sep 18 23:07:51 2023

Set parameter LogFile to value "scenario_returns/returns_beta/results/M_j_b_25/mip_log.txt"
Gurobi Optimizer version 10.0.1 build v10.0.1rc0 (mac64[arm])

CPU model: Apple M1
Thread count: 8 physical cores, 8 logical processors, using up to 8 threads

Optimize a model with 6776 rows, 25172 columns and 99088 nonzeros
Model fingerprint: 0x08003da1
Model has 35912 general constraints
Variable types: 4 continuous, 25168 integer (1632 binary)
Coefficient statistics:
  Matrix range     [6e-02, 3e+05]
  Objective range  [9e-02, 2e+05]
  Bounds range     [1e+00, 2e+07]
  RHS range        [2e+03, 2e+04]
  GenCon rhs range [1e+00, 1e+00]
  GenCon coe range [1e+00, 1e+00]

MIP start from previous solve did not produce a new incumbent solution
Processed MIP start in 3.64 seconds (4.37 work units)

Presolve removed 5126 rows and 19252 columns
Presolve time: 0.63s
Presolved: 1650 rows, 5920 columns, 23693 nonzeros
Presolved model has 4 SOS constraint(s)
Variable types: 0 continuous, 5920 integer (34 binary)

Root relaxation: objective 5.608624e+07, 6357 iterations, 0.08 seconds (0.11 work units)

    Nodes    |    Current Node    |     Objective Bounds      |     Work
 Expl Unexpl |  Obj  Depth IntInf | Incumbent    BestBd   Gap | It/Node Time

     0     0 5.6086e+07    0  629          - 5.6086e+07      -     -    4s
     0     0 5.7095e+07    0  908          - 5.7095e+07      -     -    4s
     0     0 5.7095e+07    0  927          - 5.7095e+07      -     -    4s
     0     0 5.7095e+07    0  930          - 5.7095e+07      -     -    4s
     0     0 5.7151e+07    0  930          - 5.7151e+07      -     -    4s
     0     0 5.7199e+07    0 1019          - 5.7199e+07      -     -    4s
     0     0 5.7202e+07    0 1030          - 5.7202e+07      -     -    4s
     0     0 5.7202e+07    0 1037          - 5.7202e+07      -     -    4s
     0     0 5.7202e+07    0 1037          - 5.7202e+07      -     -    4s
     0     0 5.7202e+07    0 1041          - 5.7202e+07      -     -    4s
     0     0 5.7202e+07    0 1118          - 5.7202e+07      -     -    4s
     0     0 5.7202e+07    0 1089          - 5.7202e+07      -     -    4s
     0     2 5.7202e+07    0 1087          - 5.7202e+07      -     -    5s
 12412 10555 5.8687e+07  371   15          - 5.7409e+07      -   8.4   10s
*14454 10959             509    5.975941e+07 5.7409e+07  3.93%   8.8   10s
H14511  5650                    5.868694e+07 5.7409e+07  2.18%   8.8   11s
H14526  5165                    5.843673e+07 5.7409e+07  1.76%   8.8   11s
*17859  3965              67    5.830410e+07 5.7579e+07  1.24%  14.7   12s
*18048  3361             204    5.829588e+07 5.7594e+07  1.20%  15.1   12s
H19608  1995                    5.813137e+07 5.7594e+07  0.92%  17.9   13s
 21648  1598 5.8115e+07   71  310 5.8131e+07 5.7871e+07  0.45%  25.4   15s
*21651  1260              72    5.811517e+07 5.7871e+07  0.42%  25.4   15s
H25156   936                    5.804594e+07 5.7961e+07  0.15%  24.7   16s
*27826  1187              66    5.804593e+07 5.7961e+07  0.15%  23.3   16s

Cutting planes:
  Gomory: 2
  Implied bound: 188
  MIR: 29
  Relax-and-lift: 52

Explored 28973 nodes (719231 simplex iterations) in 17.39 seconds (21.51 work units)
Thread count was 8 (of 8 available processors)

Solution count 9: 5.80459e+07 5.80459e+07 5.81152e+07 ... 5.97594e+07

Optimal solution found (tolerance 1.00e-04)
Best objective 5.804592609950e+07, best bound 5.804591844316e+07, gap 0.0000%
